Geometry = GenFormat {
28  S
O    C    H
1      1      2.173070000000000      0.461419000000000      2.481790000000000
2      1      2.501250000000000      4.518670000000000      2.811880000000000
3      1      3.020750000000000     -0.575737000000000      4.258470000000000
4      1      1.653570000000000      5.555830000000000      1.035200000000000
5      2      2.418210000000000      0.365860000000000      3.763720000000000
6      2      2.256110000000000      4.614230000000000      1.529940000000000
7      2      1.897340000000000      1.530380000000000      4.546250000000000
8      2      2.776980000000000      3.449710000000000      0.747416000000000
9      3      2.561990000000000     -0.311881000000000      1.969660000000000
10     3      2.112330000000000      5.291970000000000      3.324000000000000
11     3      0.847959000000000      1.675300000000000      4.280190000000000
12     3      3.826360000000000      3.304790000000000      1.013470000000000
13     3      2.426010000000000      2.412670000000000      4.177310000000000
14     3      2.248310000000000      2.567420000000000      1.116360000000000
15     1      5.538430000000000      0.712618000000000      2.580070000000000
16     1     -0.864107000000000      4.267470000000000      2.713590000000000
17     1     -0.387168000000000      2.178800000000000      1.194200000000000
18     1      5.061490000000000      2.801290000000000      4.099460000000000
19     2      6.155490000000000      1.033060000000000      1.468000000000000
20     2     -1.481170000000000      3.947020000000000      3.825660000000000
21     2      6.396890000000000     -0.142960000000000      0.573690000000000
22     2     -1.722570000000000      5.123050000000000      4.719970000000000
23     3      5.367300000000000      1.523420000000000      3.145430000000000
24     3     -0.692979000000000      3.456670000000000      2.148230000000000
25     3      3.936540000000000      6.606580000000000      0.197227000000000
26     3      0.737783000000000     -1.626490000000000      5.096430000000000
27     3     -1.593150000000000      6.072600000000000      1.188470000000000
28     3      6.267470000000000     -1.092510000000000      4.105190000000000
0.000000000000000      0.000000000000000      0.000000000000000
6.867000000000000      0.000000000000000      0.000000000000000
-1.476881179448379      7.044858123609813      0.000000000000000
-0.715800048309537     -2.064773646852691      5.293663105837271
}
Driver = Socket {
  File = "dftb-nvt-sa"
  MaxSteps = -1
  Protocol = i-PI {}
  Prefix = "/tmp/ipi_"
  Verbosity = 0
}
Hamiltonian = DFTB {
  Charge = +0
  Dispersion = DftD3 {
    Damping = BeckeJohnson {
      a1 = 0.57189999999999996
      a2 = 3.6017000000000001
    }
    s6 = 1.0000000000000000
    s8 = 0.58830000000000005
    cutoff = 94.868329805051374
    cutoffcn = 40.000000000000000
    threebody = No
    hhrepulsion = No
  }
  Solver = RelativelyRobust {}
  HubbardDerivs = {
    H = -0.1857
    C = -0.1492
    O = -0.1575
  }
  MaxAngularMomentum = {
    H = "s"
    C = "p"
    O = "p"
  }
  SCC = Yes
  SCCTolerance = 1e-04
  MaxSCCIterations = 1000
  SlaterKosterFiles = Type2FileNames {
    Prefix = ../../dftb-param/
    Separator = "-"
    Suffix = ".skf"
    LowerCaseTypeName = No
  }
  ThirdOrderFull = Yes
  Filling = Fermi {
    Temperature [K] = 300
    IndependentKFilling = No
  }
  KPointsAndWeights = {
3 3 4 1.0
  }
  Differentiation = FiniteDiff {
    Delta = 1.0000000000000000E-002
  }
  HCorrection = Damping {
    Exponent = 4.0000000000000000
  }
  PolynomialRepulsive = {}
  ShellResolvedSCC = No
  OldSKInterpolation = No
  RangeSeparated = None {}
  ReadInitialCharges = No
  InitialCharges = {}
  EwaldParameter = 0.0000000000000000
  EwaldTolerance = 1.0000000000000001E-009
  ConvergentSCCOnly = Yes
  SpinPolarisation = {}
  ElectricField = {}
  OnSiteCorrection = {}
  Solvation = {}
  Electrostatics = GammaFunctional {}
  ThirdOrder = No
  ForceEvaluation = "Traditional"
  Mixer = Broyden {
    MixingParameter = 0.20000000000000001
    InverseJacobiWeight = 1.0000000000000000E-002
    MinimalWeight = 1.0000000000000000
    MaximalWeight = 100000.00000000000
    WeightFactor = 1.0000000000000000E-002
  }
}
Analysis = {
  CalculateForces = Yes
  MullikenAnalysis = No
  WriteBandOut = No
  ProjectStates = {}
  WriteEigenvectors = No
  AtomResolvedEnergies = No
  EigenvectorsAsText = No
}
Options = {
  WriteResultsTag = No
  WriteDetailedOut = No
  WriteAutotestTag = No
  WriteDetailedXML = No
  RestartFrequency = 20
  RandomSeed = 0
  WriteHS = No
  WriteRealHS = No
  MinimiseMemoryUsage = No
  ShowFoldedCoords = No
  TimingVerbosity = 1
  WriteChargesAsText = No
}
ParserOptions = {
  ParserVersion = 10
  WriteHSDInput = Yes
  StopAfterParsing = No
  IgnoreUnprocessedNodes = No
}
Reks = None {}
ExcitedState = {}
