Geometry = GenFormat {
28  S
O    C    H
1      1      0.336936200000000      5.634579620000000      1.262417930000000
2      1      5.032263390000000      1.237579620000000      1.257277750000000
3      1      4.922162980000000      3.159420380000000      3.776973430000000
4      1      0.226835790000000      7.556420380000000      3.782113610000000
5      1      1.279892300000000      3.713178560000000      1.910181290000000
6      1      4.089307280000000      8.110178560000000      0.609514380000000
7      1      3.979206870000000      5.080821440000000      3.129210060000000
8      1      1.169791890000000      0.683821440000000      4.429876970000000
9      2      2.284052230000000      4.986373880000000      0.131528110000000
10     2      3.085147360000000      0.589373880000000      2.388167560000000
11     2      2.975046950000000      3.807626120000000      4.907863240000000
12     2      2.173951820000000      8.204626120000000      2.651223790000000
13     3      2.820441130000000      5.745999600000000      0.408190700000000
14     3      2.548758460000000      1.348999600000000      2.111504980000000
15     3      2.438658040000000      3.048000400000000      4.631200660000000
16     3      2.710340720000000      7.445000400000000      2.927886380000000
17     3      1.610508710000000      5.227153600000000      4.347986860000000
18     3      3.538490060000000      0.830153600000000      3.211100170000000
19     3      3.648590470000000      3.566846400000000      0.691404490000000
20     3      1.720609120000000      7.963846400000000      1.828291180000000
21     2      1.259009410000000      4.697051280000000      1.191816060000000
22     2      4.110190180000000      0.300051280000000      1.327879620000000
23     2      4.000089770000000      4.096948720000000      3.847575300000000
24     2      1.148909000000000      8.493948720000001      3.711511730000000
25     3      5.253382090000000      5.434692000000000      1.909929320000000
26     3      0.115817500000000      1.037692000000000      0.609766350000000
27     3      0.005717090000000      3.359308000000000      3.129462030000000
28     3      5.143281680000000      7.756308000000000      4.429625000000000
0.000000000000000      0.000000000000000      0.000000000000000
5.479300000000000      0.000000000000000      0.000000000000000
0.000000000000000      8.794000000000000      0.000000000000000
-0.220200821825261      0.000000000000000      5.039391355914669
}
Driver = Socket {
  File = "dftb-nvt-sb"
  MaxSteps = -1
  Protocol = i-PI {}
  Prefix = "/tmp/ipi_"
  Verbosity = 0
}
Hamiltonian = DFTB {
  Charge = +0
  Dispersion = DftD3 {
    Damping = BeckeJohnson {
      a1 = 0.57189999999999996
      a2 = 3.6017000000000001
    }
    s6 = 1.0000000000000000
    s8 = 0.58830000000000005
    cutoff = 94.868329805051374
    cutoffcn = 40.000000000000000
    threebody = No
    hhrepulsion = No
  }
  Solver = RelativelyRobust {}
  HubbardDerivs = {
    H = -0.1857
    C = -0.1492
    O = -0.1575
  }
  MaxAngularMomentum = {
    H = "s"
    C = "p"
    O = "p"
  }
  SCC = Yes
  SCCTolerance = 1e-04
  MaxSCCIterations = 1000
  SlaterKosterFiles = Type2FileNames {
    Prefix = ../../dftb-param/
    Separator = "-"
    Suffix = ".skf"
    LowerCaseTypeName = No
  }
  ThirdOrderFull = Yes
  Filling = Fermi {
    Temperature [K] = 300
    IndependentKFilling = No
  }
  KPointsAndWeights = {
4 3 4 1.0
  }
  Differentiation = FiniteDiff {
    Delta = 1.0000000000000000E-002
  }
  HCorrection = Damping {
    Exponent = 4.0000000000000000
  }
  PolynomialRepulsive = {}
  ShellResolvedSCC = No
  OldSKInterpolation = No
  RangeSeparated = None {}
  ReadInitialCharges = No
  InitialCharges = {}
  EwaldParameter = 0.0000000000000000
  EwaldTolerance = 1.0000000000000001E-009
  ConvergentSCCOnly = Yes
  SpinPolarisation = {}
  ElectricField = {}
  OnSiteCorrection = {}
  Solvation = {}
  Electrostatics = GammaFunctional {}
  ThirdOrder = No
  ForceEvaluation = "Traditional"
  Mixer = Broyden {
    MixingParameter = 0.20000000000000001
    InverseJacobiWeight = 1.0000000000000000E-002
    MinimalWeight = 1.0000000000000000
    MaximalWeight = 100000.00000000000
    WeightFactor = 1.0000000000000000E-002
  }
}
Analysis = {
  CalculateForces = Yes
  MullikenAnalysis = No
  WriteBandOut = No
  ProjectStates = {}
  WriteEigenvectors = No
  AtomResolvedEnergies = No
  EigenvectorsAsText = No
}
Options = {
  WriteResultsTag = No
  WriteDetailedOut = No
  WriteAutotestTag = No
  WriteDetailedXML = No
  RestartFrequency = 20
  RandomSeed = 0
  WriteHS = No
  WriteRealHS = No
  MinimiseMemoryUsage = No
  ShowFoldedCoords = No
  TimingVerbosity = 1
  WriteChargesAsText = No
}
ParserOptions = {
  ParserVersion = 10
  WriteHSDInput = Yes
  StopAfterParsing = No
  IgnoreUnprocessedNodes = No
}
Reks = None {}
ExcitedState = {}
