Geometry = GenFormat {
24  S
C    H
1      1      1.112560000000000      2.447070000000000      0.157946000000000
2      1      2.914880000000000      4.062030000000000      5.940500000000000
3      1      0.901163000000000      5.701620000000000      2.891280000000000
4      1      3.126270000000000      0.807482000000000      3.207170000000000
5      1      0.129693000000000      2.466650000000000      1.135810000000000
6      1      3.897740000000000      4.042450000000000      4.962640000000000
7      1      1.884020000000000      5.721200000000000      1.913410000000000
8      1      2.143410000000000      0.787901000000000      4.185040000000000
9      1     -0.492261000000000      3.233480000000000      5.120670000000000
10     1      4.519700000000000      3.275620000000000      0.977782000000000
11     1      1.027120000000000      6.488030000000000      4.027010000000000
12     1      3.000320000000000      0.021071900000000      2.071440000000000
13     2      1.980670000000000      1.817870000000000      0.297530000000000
14     2      2.046770000000000      4.691230000000000      5.800920000000000
15     2      0.033054800000000      5.072420000000000      2.751700000000000
16     2      3.994380000000000      1.436680000000000      3.346760000000000
17     2      0.244886000000000      1.840450000000000      2.012240000000000
18     2      3.782550000000000      4.668650000000000      4.086210000000000
19     2      1.768830000000000      5.095000000000000      1.036980000000000
20     2      2.258600000000000      1.414100000000000      5.061470000000000
21     2      0.285481000000000      3.217930000000000      4.365770000000000
22     2      3.741960000000000      3.291170000000000      1.732690000000000
23     2      0.249373000000000      6.472480000000000      4.781910000000000
24     2      3.778060000000000      0.036618600000000      1.316540000000000
0.000000000000000      0.000000000000000      0.000000000000000
5.506300000000000      0.000000000000000      0.000000000000000
0.000000000000000      6.509100000000000      0.000000000000000
-1.478863583652435      0.000000000000000      6.098450421291189
}
Driver = Socket {
  File = "dftb-nvt-bI"
  MaxSteps = -1
  Protocol = i-PI {}
  Prefix = "/tmp/ipi_"
  Verbosity = 0
}
Hamiltonian = DFTB {
  Charge = +0
  Dispersion = DftD3 {
    Damping = BeckeJohnson {
      a1 = 0.57189999999999996
      a2 = 3.6017000000000001
    }
    s6 = 1.0000000000000000
    s8 = 0.58830000000000005
    cutoff = 94.868329805051374
    cutoffcn = 40.000000000000000
    threebody = No
    hhrepulsion = No
  }
  Solver = RelativelyRobust {}
  HubbardDerivs = {
    H = -0.1857
    C = -0.1492
  }
  MaxAngularMomentum = {
    H = "s"
    C = "p"
  }
  SCC = Yes
  SCCTolerance = 1e-04
  MaxSCCIterations = 1000
  SlaterKosterFiles = Type2FileNames {
    Prefix = ../../dftb-param/
    Separator = "-"
    Suffix = ".skf"
    LowerCaseTypeName = No
  }
  ThirdOrderFull = Yes
  Filling = Fermi {
    Temperature [K] = 300
    IndependentKFilling = No
  }
  KPointsAndWeights = {
4 4 4 1.0
  }
  Differentiation = FiniteDiff {
    Delta = 1.0000000000000000E-002
  }
  HCorrection = Damping {
    Exponent = 4.0000000000000000
  }
  PolynomialRepulsive = {}
  ShellResolvedSCC = No
  OldSKInterpolation = No
  RangeSeparated = None {}
  ReadInitialCharges = No
  InitialCharges = {}
  EwaldParameter = 0.0000000000000000
  EwaldTolerance = 1.0000000000000001E-009
  ConvergentSCCOnly = Yes
  SpinPolarisation = {}
  ElectricField = {}
  OnSiteCorrection = {}
  Solvation = {}
  Electrostatics = GammaFunctional {}
  ThirdOrder = No
  ForceEvaluation = "Traditional"
  Mixer = Broyden {
    MixingParameter = 0.20000000000000001
    InverseJacobiWeight = 1.0000000000000000E-002
    MinimalWeight = 1.0000000000000000
    MaximalWeight = 100000.00000000000
    WeightFactor = 1.0000000000000000E-002
  }
}
Analysis = {
  CalculateForces = Yes
  MullikenAnalysis = No
  WriteBandOut = No
  ProjectStates = {}
  WriteEigenvectors = No
  AtomResolvedEnergies = No
  EigenvectorsAsText = No
}
Options = {
  WriteResultsTag = No
  WriteDetailedOut = No
  WriteAutotestTag = No
  WriteDetailedXML = No
  RestartFrequency = 20
  RandomSeed = 0
  WriteHS = No
  WriteRealHS = No
  MinimiseMemoryUsage = No
  ShowFoldedCoords = No
  TimingVerbosity = 1
  WriteChargesAsText = No
}
ParserOptions = {
  ParserVersion = 10
  WriteHSDInput = Yes
  StopAfterParsing = No
  IgnoreUnprocessedNodes = No
}
Reks = None {}
ExcitedState = {}
