Geometry = GenFormat {
40  S
N    H    C    O
1      1      3.680862780000000      5.119489500000000      1.248901110000000
2      1      3.150494680000000     11.336989500000000      1.345409460000000
3      1     -0.464147860000000      7.315510500000000      3.939720020000000
4      1      0.066220250000000      1.098010500000000      3.843211670000000
5      2      4.001332460000000      4.955347500000000      0.228299330000000
6      2      2.830025010000000     11.172847500000000      2.366011230000000
7      2     -0.784617530000000      7.479652500000000      4.960321800000000
8      2      0.386689920000000      1.262152500000000      2.822609890000000
9      2      4.431661240000000      4.735248000000000      1.924978440000000
10     2      2.399696230000000     10.952748000000000      0.669332130000000
11     2     -1.214946310000000      7.699752000000000      3.263642690000000
12     2      0.817018700000000      1.482252000000000      4.519289000000000
13     2      3.552339180000000      6.180195000000000      1.416493570000000
14     2      3.279018290000000     12.397695000000001      1.177817000000000
15     2     -0.335624250000000      6.254805000000000      3.772127560000000
16     2     -0.062303360000000      0.037305000000000      4.010804130000000
17     3      2.372136970000000      4.406964000000000      1.487577680000000
18     3      4.459220490000000     10.624464000000000      1.106732890000000
19     3      0.844577960000000      8.028036000000000      3.701043450000000
20     3     -1.242505570000000      1.810536000000000      4.081888240000000
21     2      2.516976250000000      3.270405000000000      1.327768150000000
22     2      4.314381210000000      9.487905000000000      1.266542420000000
23     2      0.699738680000000      9.164595000000000      3.860852980000000
24     2     -1.097666290000000      2.947095000000000      3.922078710000000
25     2      1.588954090000000      4.777527000000000      0.726406960000000
26     2      0.019403370000000     10.995027000000000      1.867903610000000
27     2      1.627760840000000      7.657473000000000      4.462214170000000
28     2      3.197311550000000      1.439973000000000      3.320717520000000
29     3      1.847982750000000      4.665612000000000      2.940391590000000
30     3      2.977089640000000     10.883112000000001      4.842540100000000
31     3      1.368732180000000      7.769388000000000      2.248229530000000
32     3      0.239625290000000      1.551888000000000      0.346081030000000
33     4      2.728695030000000      5.044879500000000      3.823494910000000
34     4      2.096377360000000     11.262379500000000      3.959436780000000
35     4      0.488019900000000      7.390120500000000      1.365126220000000
36     4      1.120337570000000      1.172620500000000      1.229184350000000
37     4      0.603846320000000      4.480330500000000      3.148455300000000
38     4     -1.001773930000000     10.697830500000000      4.634476390000000
39     4      2.612868610000000      7.954669500000000      2.040165830000000
40     4      4.218488850000000      1.737169500000000      0.554144740000000
0.000000000000000      0.000000000000000      0.000000000000000
5.223000000000000      0.000000000000000      0.000000000000000
0.000000000000000     12.435000000000000      0.000000000000000
-1.871266018734423      0.000000000000000      4.839437092139005
}
Driver = Socket {
  File = "dftb-nvt-ga"
  MaxSteps = -1
  Protocol = i-PI {}
  Prefix = "/tmp/ipi_"
  Verbosity = 0
}
Hamiltonian = DFTB {
  Charge = +0
  Dispersion = DftD3 {
    Damping = BeckeJohnson {
      a1 = 0.57189999999999996
      a2 = 3.6017000000000001
    }
    s6 = 1.0000000000000000
    s8 = 0.58830000000000005
    cutoff = 94.868329805051374
    cutoffcn = 40.000000000000000
    threebody = No
    hhrepulsion = No
  }
  Solver = RelativelyRobust {}
  HubbardDerivs = {
    H = -0.1857
    C = -0.1492
    N = -0.1535
    O = -0.1575
  }
  MaxAngularMomentum = {
    H = "s"
    C = "p"
    N = "p"
    O = "p"
  }
  SCC = Yes
  SCCTolerance = 1e-04
  MaxSCCIterations = 1000
  SlaterKosterFiles = Type2FileNames {
    Prefix = ../../dftb-param/
    Separator = "-"
    Suffix = ".skf"
    LowerCaseTypeName = No
  }
  ThirdOrderFull = Yes
  Filling = Fermi {
    Temperature [K] = 300
    IndependentKFilling = No
  }
  KPointsAndWeights = {
4 2 4 1.0
  }
  Differentiation = FiniteDiff {
    Delta = 1.0000000000000000E-002
  }
  HCorrection = Damping {
    Exponent = 4.0000000000000000
  }
  PolynomialRepulsive = {}
  ShellResolvedSCC = No
  OldSKInterpolation = No
  RangeSeparated = None {}
  ReadInitialCharges = No
  InitialCharges = {}
  EwaldParameter = 0.0000000000000000
  EwaldTolerance = 1.0000000000000001E-009
  ConvergentSCCOnly = Yes
  SpinPolarisation = {}
  ElectricField = {}
  OnSiteCorrection = {}
  Solvation = {}
  Electrostatics = GammaFunctional {}
  ThirdOrder = No
  ForceEvaluation = "Traditional"
  Mixer = Broyden {
    MixingParameter = 0.20000000000000001
    InverseJacobiWeight = 1.0000000000000000E-002
    MinimalWeight = 1.0000000000000000
    MaximalWeight = 100000.00000000000
    WeightFactor = 1.0000000000000000E-002
  }
}
Analysis = {
  CalculateForces = Yes
  MullikenAnalysis = No
  WriteBandOut = No
  ProjectStates = {}
  WriteEigenvectors = No
  AtomResolvedEnergies = No
  EigenvectorsAsText = No
}
Options = {
  WriteResultsTag = No
  WriteDetailedOut = No
  WriteAutotestTag = No
  WriteDetailedXML = No
  RestartFrequency = 20
  RandomSeed = 0
  WriteHS = No
  WriteRealHS = No
  MinimiseMemoryUsage = No
  ShowFoldedCoords = No
  TimingVerbosity = 1
  WriteChargesAsText = No
}
ParserOptions = {
  ParserVersion = 10
  WriteHSDInput = Yes
  StopAfterParsing = No
  IgnoreUnprocessedNodes = No
}
Reks = None {}
ExcitedState = {}
