Geometry = GenFormat {
40  S
O    C    N    H
1      1     -1.214890000000000      9.771929999999999      4.410780000000000
2      1      3.897100000000000      1.687070000000000      0.507575000000000
3      1      0.271303000000000      4.042430000000000      2.966750000000000
4      1      2.410900000000000      7.416570000000000      1.951600000000000
5      1      1.739300000000000     10.381100000000000      3.716230000000000
6      1      0.942910000000000      1.077860000000000      1.202120000000000
7      1      2.284010000000000      4.651640000000000      3.661300000000000
8      1      0.398193000000000      6.807360000000000      1.257060000000000
9      2      2.531970000000000      9.995410000000000      4.598550000000000
10     2      0.150236000000000      1.463590000000000      0.319807000000000
11     2      1.491340000000000      4.265910000000000      2.778980000000000
12     2      1.190870000000000      7.193090000000000      2.139370000000000
13     2      4.278930000000000      9.770860000000001      1.076420000000000
14     2     -1.596730000000000      1.688140000000000      3.841930000000000
15     2      2.029070000000000      4.041360000000000      1.382760000000000
16     2      0.653138000000000      7.417640000000000      3.535600000000000
17     3      2.993520000000000     10.443099999999999      1.279780000000000
18     3     -0.311310000000000      1.015860000000000      3.638580000000000
19     3      3.314490000000000      4.713640000000000      1.179400000000000
20     3     -0.632279000000000      6.745360000000000      3.738950000000000
21     4      4.139670000000000      8.701359999999999      1.227740000000000
22     4     -1.457470000000000      2.757640000000000      3.690610000000000
23     4      2.168330000000000      2.971860000000000      1.231430000000000
24     4      0.513878000000000      8.487140000000000      3.686920000000000
25     4      0.030105600000000     10.134300000000000      1.807130000000000
26     4      2.652100000000000      1.324680000000000      3.111230000000000
27     4      1.311000000000000      4.404820000000000      0.652050000000000
28     4      1.371210000000000      7.054180000000000      4.266300000000000
29     4      2.607390000000000     10.322400000000000      2.246970000000000
30     4      0.074819600000000      1.136590000000000      2.671380000000000
31     4      3.700620000000000      4.592910000000000      0.212206000000000
32     4     -1.018410000000000      6.866090000000000      4.706150000000000
33     4      2.269360000000000     10.090900000000000      0.612936000000000
34     4      0.412849000000000      1.368080000000000      4.305420000000000
35     4      4.038650000000000      4.361420000000000      1.846240000000000
36     4     -1.356440000000000      7.097580000000000      3.072110000000000
37     4      3.081830000000000     11.452299999999999      1.110490000000000
38     4     -0.399619000000000      0.006692010000000      3.807860000000000
39     4      3.226180000000000      5.722810000000000      1.348690000000000
40     4     -0.543970000000000      5.736190000000000      3.569660000000000
0.000000000000000      0.000000000000000      0.000000000000000
4.966900000000000      0.000000000000000      0.000000000000000
0.000000000000000     11.459000000000000      0.000000000000000
-2.284692871678379      0.000000000000000      4.918352579075844
}
Driver = Socket {
  File = "dftb-nvt-ga"
  MaxSteps = -1
  Protocol = i-PI {}
  Prefix = "/tmp/ipi_"
  Verbosity = 0
}
Hamiltonian = DFTB {
  Charge = +0
  Dispersion = DftD3 {
    Damping = BeckeJohnson {
      a1 = 0.57189999999999996
      a2 = 3.6017000000000001
    }
    s6 = 1.0000000000000000
    s8 = 0.58830000000000005
    cutoff = 94.868329805051374
    cutoffcn = 40.000000000000000
    threebody = No
    hhrepulsion = No
  }
  Solver = RelativelyRobust {}
  HubbardDerivs = {
    H = -0.1857
    C = -0.1492
    N = -0.1535
    O = -0.1575
  }
  MaxAngularMomentum = {
    H = "s"
    C = "p"
    N = "p"
    O = "p"
  }
  SCC = Yes
  SCCTolerance = 1e-04
  MaxSCCIterations = 1000
  SlaterKosterFiles = Type2FileNames {
    Prefix = ../../dftb-param/
    Separator = "-"
    Suffix = ".skf"
    LowerCaseTypeName = No
  }
  ThirdOrderFull = Yes
  Filling = Fermi {
    Temperature [K] = 300
    IndependentKFilling = No
  }
  KPointsAndWeights = {
5 2 4 1.0
  }
  Differentiation = FiniteDiff {
    Delta = 1.0000000000000000E-002
  }
  HCorrection = Damping {
    Exponent = 4.0000000000000000
  }
  PolynomialRepulsive = {}
  ShellResolvedSCC = No
  OldSKInterpolation = No
  RangeSeparated = None {}
  ReadInitialCharges = No
  InitialCharges = {}
  EwaldParameter = 0.0000000000000000
  EwaldTolerance = 1.0000000000000001E-009
  ConvergentSCCOnly = Yes
  SpinPolarisation = {}
  ElectricField = {}
  OnSiteCorrection = {}
  Solvation = {}
  Electrostatics = GammaFunctional {}
  ThirdOrder = No
  ForceEvaluation = "Traditional"
  Mixer = Broyden {
    MixingParameter = 0.20000000000000001
    InverseJacobiWeight = 1.0000000000000000E-002
    MinimalWeight = 1.0000000000000000
    MaximalWeight = 100000.00000000000
    WeightFactor = 1.0000000000000000E-002
  }
}
Analysis = {
  CalculateForces = Yes
  MullikenAnalysis = No
  WriteBandOut = No
  ProjectStates = {}
  WriteEigenvectors = No
  AtomResolvedEnergies = No
  EigenvectorsAsText = No
}
Options = {
  WriteResultsTag = No
  WriteDetailedOut = No
  WriteAutotestTag = No
  WriteDetailedXML = No
  RestartFrequency = 20
  RandomSeed = 0
  WriteHS = No
  WriteRealHS = No
  MinimiseMemoryUsage = No
  ShowFoldedCoords = No
  TimingVerbosity = 1
  WriteChargesAsText = No
}
ParserOptions = {
  ParserVersion = 10
  WriteHSDInput = Yes
  StopAfterParsing = No
  IgnoreUnprocessedNodes = No
}
Reks = None {}
ExcitedState = {}
