Geometry = GenFormat {
24  S
C    H
1      1      1.717332480000000      5.357722500000000      6.354368120000000
2      1     -0.240139690000000      2.610172500000000      4.392674590000000
3      1      1.105662720000000      0.137377500000000      0.810327020000000
4      1      3.063134880000000      2.884927500000000      2.772020550000000
5      2      0.965419920000000      5.277494040000000      5.813433640000000
6      2      0.511772870000000      2.529944040000000      4.933609080000000
7      2      1.857575270000000      0.217605960000000      1.351261500000000
8      2      2.311222320000000      2.965155960000000      2.231086070000000
9      1      2.702869950000000      4.401575100000000      6.302782320000000
10     1     -1.225677160000000      1.654025100000000      4.444260400000000
11     1      0.120125240000000      1.093524900000000      0.861912830000000
12     1      4.048672360000000      3.841074900000000      2.720434750000000
13     2      2.623692420000000      3.676771410000000      5.726740830000000
14     2     -1.146499630000000      0.929221410000000      5.020301890000000
15     2      0.199302780000000      1.818328590000000      1.437954320000000
16     2      3.969494820000000      4.565878590000000      2.144393260000000
17     1      4.528228770000000      0.961642500000000      0.050869340000000
18     1     -0.359431170000000      3.709192500000000      3.531478240000000
19     1     -1.705233570000000      4.533457500000000      7.113825810000000
20     1      3.182426360000000      1.785907500000000      3.633216910000000
21     2      3.858428230000000      1.607316750000000      0.075229300000000
22     2      0.310369370000000      4.354866750000000      3.507118270000000
23     2     -1.035433040000000      3.887783250000000      7.089465850000000
24     2      2.512625830000000      1.140233250000000      3.657576870000000
0.000000000000000      0.000000000000000      0.000000000000000
5.514600000000000      0.000000000000000      0.000000000000000
0.000000000000000      5.495100000000000      0.000000000000000
-2.691604806030151      0.000000000000000      7.164695145514245
}
Driver = Socket {
  File = "dftb-nvt-bII"
  MaxSteps = -1
  Protocol = i-PI {}
  Prefix = "/tmp/ipi_"
  Verbosity = 0
}
Hamiltonian = DFTB {
  Charge = +0
  Dispersion = DftD3 {
    Damping = BeckeJohnson {
      a1 = 0.57189999999999996
      a2 = 3.6017000000000001
    }
    s6 = 1.0000000000000000
    s8 = 0.58830000000000005
    cutoff = 94.868329805051374
    cutoffcn = 40.000000000000000
    threebody = No
    hhrepulsion = No
  }
  Solver = RelativelyRobust {}
  HubbardDerivs = {
    H = -0.1857
    C = -0.1492
  }
  MaxAngularMomentum = {
    H = "s"
    C = "p"
  }
  SCC = Yes
  SCCTolerance = 1e-04
  MaxSCCIterations = 1000
  SlaterKosterFiles = Type2FileNames {
    Prefix = ../../dftb-param/
    Separator = "-"
    Suffix = ".skf"
    LowerCaseTypeName = No
  }
  ThirdOrderFull = Yes
  Filling = Fermi {
    Temperature [K] = 300
    IndependentKFilling = No
  }
  KPointsAndWeights = {
4 4 3 1.0
  }
  Differentiation = FiniteDiff {
    Delta = 1.0000000000000000E-002
  }
  HCorrection = Damping {
    Exponent = 4.0000000000000000
  }
  PolynomialRepulsive = {}
  ShellResolvedSCC = No
  OldSKInterpolation = No
  RangeSeparated = None {}
  ReadInitialCharges = No
  InitialCharges = {}
  EwaldParameter = 0.0000000000000000
  EwaldTolerance = 1.0000000000000001E-009
  ConvergentSCCOnly = Yes
  SpinPolarisation = {}
  ElectricField = {}
  OnSiteCorrection = {}
  Solvation = {}
  Electrostatics = GammaFunctional {}
  ThirdOrder = No
  ForceEvaluation = "Traditional"
  Mixer = Broyden {
    MixingParameter = 0.20000000000000001
    InverseJacobiWeight = 1.0000000000000000E-002
    MinimalWeight = 1.0000000000000000
    MaximalWeight = 100000.00000000000
    WeightFactor = 1.0000000000000000E-002
  }
}
Analysis = {
  CalculateForces = Yes
  MullikenAnalysis = No
  WriteBandOut = No
  ProjectStates = {}
  WriteEigenvectors = No
  AtomResolvedEnergies = No
  EigenvectorsAsText = No
}
Options = {
  WriteResultsTag = No
  WriteDetailedOut = No
  WriteAutotestTag = No
  WriteDetailedXML = No
  RestartFrequency = 20
  RandomSeed = 0
  WriteHS = No
  WriteRealHS = No
  MinimiseMemoryUsage = No
  ShowFoldedCoords = No
  TimingVerbosity = 1
  WriteChargesAsText = No
}
ParserOptions = {
  ParserVersion = 10
  WriteHSDInput = Yes
  StopAfterParsing = No
  IgnoreUnprocessedNodes = No
}
Reks = None {}
ExcitedState = {}
