Geometry = GenFormat {
30  S
O    C    N    H
1      1      5.110690000000000      3.352680000000000      0.044176800000000
2      1      1.474350000000000      2.749650000000000      1.862580000000000
3      1      0.348159000000000      5.906330000000000      3.680980000000000
4      1      5.989810000000000      1.310990000000000      5.403150000000000
5      1      2.802950000000000      4.531830000000000      1.766350000000000
6      1      1.607050000000000      0.161507000000000      3.584750000000000
7      2      5.585410000000000      2.379640000000000      4.884860000000000
8      2      2.079660000000000      3.647290000000000      1.248060000000000
9      2      2.734720000000000     -0.022604900000000      3.066460000000000
10     2     -1.215550000000000      2.539090000000000      3.381040000000000
11     2      1.875460000000000      3.682090000000000      5.199440000000000
12     2     -0.659910000000000      5.787480000000000      1.562640000000000
13     3      5.978760000000000      1.265830000000000      2.711410000000000
14     3      2.847580000000000      4.544850000000000      4.529810000000000
15     3      1.573460000000000      0.193654000000000      0.893007000000000
16     4     -0.376961000000000      3.203190000000000      3.172630000000000
17     4      0.881039000000000      4.076280000000000      4.991030000000000
18     4     -0.504078000000000      4.729190000000000      1.354230000000000
19     4      4.817110000000000      2.983550000000000      2.960990000000000
20     4      1.940810000000000      2.679960000000000      4.779390000000000
21     4      3.641880000000000      0.340812000000000      1.142590000000000
22     4      5.986970000000000      1.367100000000000      1.666660000000000
23     4      2.755770000000000      4.501320000000000      3.485060000000000
24     4      1.657060000000000      0.135910000000000      5.303460000000000
25     4     -0.044332100000000      0.885061000000000      3.012890000000000
26     4      2.722280000000000      5.523400000000000      4.831290000000000
27     4     -2.677950000000000      5.600190000000000      1.194490000000000
28     4      5.221880000000000      0.595892000000000      2.975820000000000
29     4      3.806200000000000      4.224340000000000      4.794220000000000
30     4      1.371720000000000      1.184100000000000      1.157420000000000
0.000000000000000      0.000000000000000      0.000000000000000
6.933200000000000      0.000000000000000      0.000000000000000
-3.466599999999999      6.004327329518270      0.000000000000000
0.000000000000000      0.000000000000000      5.455200000000000
}
Driver = Socket {
  File = "dftb-nvt-gg"
  MaxSteps = -1
  Protocol = i-PI {}
  Prefix = "/tmp/ipi_"
  Verbosity = 0
}
Hamiltonian = DFTB {
  Charge = +0
  Dispersion = DftD3 {
    Damping = BeckeJohnson {
      a1 = 0.57189999999999996
      a2 = 3.6017000000000001
    }
    s6 = 1.0000000000000000
    s8 = 0.58830000000000005
    cutoff = 94.868329805051374
    cutoffcn = 40.000000000000000
    threebody = No
    hhrepulsion = No
  }
  Solver = RelativelyRobust {}
  HubbardDerivs = {
    H = -0.1857
    C = -0.1492
    N = -0.1535
    O = -0.1575
  }
  MaxAngularMomentum = {
    H = "s"
    C = "p"
    N = "p"
    O = "p"
  }
  SCC = Yes
  SCCTolerance = 1e-04
  MaxSCCIterations = 1000
  SlaterKosterFiles = Type2FileNames {
    Prefix = /local/home/local/Documents/principev/genshift/genmd_besshield/dftb-param/
    Separator = "-"
    Suffix = ".skf"
    LowerCaseTypeName = No
  }
  ThirdOrderFull = Yes
  Filling = Fermi {
    Temperature [K] = 300
    IndependentKFilling = No
  }
  KPointsAndWeights = {
3 3 4 1.0
  }
  Differentiation = FiniteDiff {
    Delta = 1.0000000000000000E-002
  }
  HCorrection = Damping {
    Exponent = 4.0000000000000000
  }
  PolynomialRepulsive = {}
  ShellResolvedSCC = No
  OldSKInterpolation = No
  RangeSeparated = None {}
  ReadInitialCharges = No
  InitialCharges = {}
  EwaldParameter = 0.0000000000000000
  EwaldTolerance = 1.0000000000000001E-009
  ConvergentSCCOnly = Yes
  SpinPolarisation = {}
  ElectricField = {}
  OnSiteCorrection = {}
  Solvation = {}
  Electrostatics = GammaFunctional {}
  ThirdOrder = No
  ForceEvaluation = "Traditional"
  Mixer = Broyden {
    MixingParameter = 0.20000000000000001
    InverseJacobiWeight = 1.0000000000000000E-002
    MinimalWeight = 1.0000000000000000
    MaximalWeight = 100000.00000000000
    WeightFactor = 1.0000000000000000E-002
  }
}
Analysis = {
  CalculateForces = Yes
  MullikenAnalysis = No
  WriteBandOut = No
  ProjectStates = {}
  WriteEigenvectors = No
  AtomResolvedEnergies = No
  EigenvectorsAsText = No
}
Options = {
  WriteResultsTag = No
  WriteDetailedOut = No
  WriteAutotestTag = No
  WriteDetailedXML = No
  RestartFrequency = 20
  RandomSeed = 0
  WriteHS = No
  WriteRealHS = No
  MinimiseMemoryUsage = No
  ShowFoldedCoords = No
  TimingVerbosity = 1
  WriteChargesAsText = No
}
ParserOptions = {
  ParserVersion = 10
  WriteHSDInput = Yes
  StopAfterParsing = No
  IgnoreUnprocessedNodes = No
}
Reks = None {}
ExcitedState = {}
