Geometry = GenFormat {
48  S
C    H
1      1      6.895688100000000      1.311000000000000      0.064873600000000
2      1      4.034811900000000      7.889000000000000      3.408873600000000
3      1      0.391311900000000      5.911000000000000      3.279126400000000
4      1      3.252188100000000      3.289000000000000      6.623126400000000
5      1      0.391311900000000      7.889000000000000      6.623126400000000
6      1      3.252188100000000      1.311000000000000      3.279126400000000
7      1      6.895688100000000      3.289000000000000      3.408873600000000
8      1      4.034811900000000      5.911000000000000      0.064873600000000
9      2      6.667605000000000      2.263200000000000      0.227392000000000
10     2      4.262895000000000      6.936800000000000      3.571392000000000
11     2      0.619395000000000      6.863200000000000      3.116608000000000
12     2      3.024105000000000      2.336800000000000      6.460608000000000
13     2      0.619395000000000      6.936800000000000      6.460608000000000
14     2      3.024105000000000      2.263200000000000      3.116608000000000
15     2      6.667605000000000      2.336800000000000      3.571392000000000
16     2      4.262895000000000      6.863200000000000      0.227392000000000
17     1      0.612108000000000      0.850080000000000      0.918262400000000
18     1      3.031392000000000      8.349919999999999      4.262262400000000
19     1      6.674892000000000      5.450080000000000      2.425737600000000
20     1      4.255608000000000      3.749920000000000      5.769737600000000
21     1      6.674892000000000      8.349919999999999      5.769737600000000
22     1      4.255608000000000      0.850080000000000      2.425737600000000
23     1      0.612108000000000      3.749920000000000      4.262262400000000
24     1      3.031392000000000      5.450080000000000      0.918262400000000
25     2      1.020180000000000      1.435200000000000      1.464672000000000
26     2      2.623320000000000      7.764800000000000      4.808672000000000
27     2      6.266820000000000      6.035200000000000      1.879328000000000
28     2      4.663680000000000      3.164800000000000      5.223328000000000
29     2      6.266820000000000      7.764800000000000      5.223328000000000
30     2      4.663680000000000      1.435200000000000      1.879328000000000
31     2      1.020180000000000      3.164800000000000      4.808672000000000
32     2      2.623320000000000      6.035200000000000      1.464672000000000
33     1      0.978644100000000      8.720680000000000      0.825968000000000
34     1      2.664855900000000      0.479320000000000      4.169968000000000
35     1      6.308355900000000      4.120680000000000      2.518032000000000
36     1      4.622144100000000      5.079320000000000      5.862032000000000
37     1      6.308355900000000      0.479320000000000      5.862032000000000
38     1      4.622144100000000      8.720680000000000      2.518032000000000
39     1      0.978644100000000      5.079320000000000      4.169968000000000
40     1      2.664855900000000      4.120680000000000      0.825968000000000
41     2      1.603140000000000      8.464000000000000      1.364352000000000
42     2      2.040360000000000      0.736000000000000      4.708352000000000
43     2      5.683860000000000      3.864000000000000      1.979648000000000
44     2      5.246640000000000      5.336000000000000      5.323648000000000
45     2      5.683860000000000      0.736000000000000      5.323648000000000
46     2      5.246640000000000      8.464000000000000      1.979648000000000
47     2      1.603140000000000      5.336000000000000      4.708352000000000
48     2      2.040360000000000      3.864000000000000      1.364352000000000
0.000000000000000      0.000000000000000      0.000000000000000
7.287000000000000      0.000000000000000      0.000000000000000
0.000000000000000      9.199999999999999      0.000000000000000
0.000000000000000      0.000000000000000      6.688000000000000
}
Driver = Socket {
  File = "dftb-nvt-bI"
  MaxSteps = -1
  Protocol = i-PI {}
  Prefix = "/tmp/ipi_"
  Verbosity = 0
}
Hamiltonian = DFTB {
  Charge = +0
  Dispersion = DftD3 {
    Damping = BeckeJohnson {
      a1 = 0.57189999999999996
      a2 = 3.6017000000000001
    }
    s6 = 1.0000000000000000
    s8 = 0.58830000000000005
    cutoff = 94.868329805051374
    cutoffcn = 40.000000000000000
    threebody = No
    hhrepulsion = No
  }
  Solver = RelativelyRobust {}
  HubbardDerivs = {
    H = -0.1857
    C = -0.1492
  }
  MaxAngularMomentum = {
    H = "s"
    C = "p"
  }
  SCC = Yes
  SCCTolerance = 1e-04
  MaxSCCIterations = 1000
  SlaterKosterFiles = Type2FileNames {
    Prefix = ../../dftb-param/
    Separator = "-"
    Suffix = ".skf"
    LowerCaseTypeName = No
  }
  ThirdOrderFull = Yes
  Filling = Fermi {
    Temperature [K] = 300
    IndependentKFilling = No
  }
  KPointsAndWeights = {
3 3 3 1.0
  }
  Differentiation = FiniteDiff {
    Delta = 1.0000000000000000E-002
  }
  HCorrection = Damping {
    Exponent = 4.0000000000000000
  }
  PolynomialRepulsive = {}
  ShellResolvedSCC = No
  OldSKInterpolation = No
  RangeSeparated = None {}
  ReadInitialCharges = No
  InitialCharges = {}
  EwaldParameter = 0.0000000000000000
  EwaldTolerance = 1.0000000000000001E-009
  ConvergentSCCOnly = Yes
  SpinPolarisation = {}
  ElectricField = {}
  OnSiteCorrection = {}
  Solvation = {}
  Electrostatics = GammaFunctional {}
  ThirdOrder = No
  ForceEvaluation = "Traditional"
  Mixer = Broyden {
    MixingParameter = 0.20000000000000001
    InverseJacobiWeight = 1.0000000000000000E-002
    MinimalWeight = 1.0000000000000000
    MaximalWeight = 100000.00000000000
    WeightFactor = 1.0000000000000000E-002
  }
}
Analysis = {
  CalculateForces = Yes
  MullikenAnalysis = No
  WriteBandOut = No
  ProjectStates = {}
  WriteEigenvectors = No
  AtomResolvedEnergies = No
  EigenvectorsAsText = No
}
Options = {
  WriteResultsTag = No
  WriteDetailedOut = No
  WriteAutotestTag = No
  WriteDetailedXML = No
  RestartFrequency = 20
  RandomSeed = 0
  WriteHS = No
  WriteRealHS = No
  MinimiseMemoryUsage = No
  ShowFoldedCoords = No
  TimingVerbosity = 1
  WriteChargesAsText = No
}
ParserOptions = {
  ParserVersion = 10
  WriteHSDInput = Yes
  StopAfterParsing = No
  IgnoreUnprocessedNodes = No
}
Reks = None {}
ExcitedState = {}
